log/Reading instance from file data/g05.dat
Number of nodes: 101
Number of edges: 400
initialize CPLEX ... done.
Calling CPLEX solve ...
Version identifier: 12.10.0.0 | 2019-11-26 | 843d4de
CPXPARAM_Threads                                 1
CPXPARAM_TimeLimit                               3600
CPXPARAM_WorkMem                                 8192
Tried aggregator 1 time.
MIP Presolve eliminated 1701 rows and 1600 columns.
MIP Presolve modified 11100 coefficients.
Reduced MIP has 79804 rows, 80100 columns, and 369400 nonzeros.
Reduced MIP has 80100 binaries, 0 generals, 0 SOSs, and 0 indicators.
Presolve time = 0.53 sec. (467.75 ticks)
Found incumbent of value 24667.000000 after 1.15 sec. (998.02 ticks)
Probing time = 3.25 sec. (2855.50 ticks)
Tried aggregator 1 time.
Detecting symmetries...
MIP Presolve eliminated 800 rows and 700 columns.
MIP Presolve modified 100 coefficients.
Reduced MIP has 79004 rows, 79400 columns, and 367100 nonzeros.
Reduced MIP has 79400 binaries, 0 generals, 0 SOSs, and 0 indicators.
Presolve time = 0.61 sec. (536.03 ticks)
Probing time = 0.07 sec. (32.03 ticks)
Clique table members: 257701.
MIP emphasis: balance optimality and feasibility.
MIP search method: dynamic search.
Parallel mode: none, using 1 thread.
Root relaxation solution time = 3.69 sec. (2289.26 ticks)

        Nodes                                         Cuts/
   Node  Left     Objective  IInf  Best Integer    Best Bound    ItCnt     Gap

*     0+    0                        24667.0000        0.0000           100.00%
*     0     0      integral     0     4898.0000     4898.0000    16923    0.00%
Elapsed time = 9.00 sec. (6904.68 ticks, tree = 0.00 MB, solutions = 2)

Root node processing (before b&c):
  Real time             =    9.01 sec. (6909.59 ticks)
Sequential b&c:
  Real time             =    0.00 sec. (0.00 ticks)
                          ------------
Total (root+branch&cut) =    9.01 sec. (6909.59 ticks)
SOLUTION:

x(0,97)[0..1]  = 1
x(6,14)[0..1]  = 1
x(12,23)[0..1]  = 1
x(12,69)[0..1]  = 1
x(14,25)[0..1]  = 1
x(17,35)[0..1]  = 1
x(26,41)[0..1]  = 1
x(27,86)[0..1]  = 1
x(28,42)[0..1]  = 1
x(31,44)[0..1]  = 1
x(36,57)[0..1]  = 1
x(36,92)[0..1]  = 1
x(46,66)[0..1]  = 1
x(48,91)[0..1]  = 1
x(52,61)[0..1]  = 1
x(56,62)[0..1]  = 1
x(64,94)[0..1]  = 1
x(66,71)[0..1]  = 1
x(70,88)[0..1]  = 1
x(76,84)[0..1]  = 1
x(76,89)[0..1]  = 1
x(88,90)[0..1]  = 1
x(91,98)[0..1]  = 1
x(94,95)[0..1]  = 1
x(96,99)[0..1]  = 1
x(56,2)[0..1]  = 1
x(32,6)[0..1]  = 1
x(66,9)[0..1]  = 1
x(79,12)[0..1]  = 1
x(16,15)[0..1]  = 1
x(94,16)[0..1]  = 1
x(27,17)[0..1]  = 1
x(61,26)[0..1]  = 1
x(97,27)[0..1]  = 1
x(36,28)[0..1]  = 1
x(38,30)[0..1]  = 1
x(96,31)[0..1]  = 1
x(61,32)[0..1]  = 1
x(86,36)[0..1]  = 1
x(95,38)[0..1]  = 1
x(56,46)[0..1]  = 1
x(96,48)[0..1]  = 1
x(93,52)[0..1]  = 1
x(84,56)[0..1]  = 1
x(97,64)[0..1]  = 1
x(97,70)[0..1]  = 1
x(88,76)[0..1]  = 1
x(99,79)[0..1]  = 1
x(96,93)[0..1]  = 1
x(97,96)[0..1]  = 1
z(2)[0..1]  = 1
z(6)[0..1]  = 1
z(9)[0..1]  = 1
z(12)[0..1]  = 1
z(14)[0..1]  = 1
z(15)[0..1]  = 1
z(16)[0..1]  = 1
z(17)[0..1]  = 1
z(23)[0..1]  = 1
z(25)[0..1]  = 1
z(26)[0..1]  = 1
z(27)[0..1]  = 1
z(28)[0..1]  = 1
z(30)[0..1]  = 1
z(31)[0..1]  = 1
z(32)[0..1]  = 1
z(35)[0..1]  = 1
z(36)[0..1]  = 1
z(38)[0..1]  = 1
z(41)[0..1]  = 1
z(42)[0..1]  = 1
z(44)[0..1]  = 1
z(46)[0..1]  = 1
z(48)[0..1]  = 1
z(52)[0..1]  = 1
z(56)[0..1]  = 1
z(57)[0..1]  = 1
z(61)[0..1]  = 1
z(62)[0..1]  = 1
z(64)[0..1]  = 1
z(66)[0..1]  = 1
z(69)[0..1]  = 1
z(70)[0..1]  = 1
z(71)[0..1]  = 1
z(76)[0..1]  = 1
z(79)[0..1]  = 1
z(84)[0..1]  = 1
z(86)[0..1]  = 1
z(88)[0..1]  = 1
z(89)[0..1]  = 1
z(90)[0..1]  = 1
z(91)[0..1]  = 1
z(92)[0..1]  = 1
z(93)[0..1]  = 1
z(94)[0..1]  = 1
z(95)[0..1]  = 1
z(96)[0..1]  = 1
z(97)[0..1]  = 1
z(98)[0..1]  = 1
z(99)[0..1]  = 1


CPLEX finished.

CPLEX status: Optimal
Branch-and-Bound nodes: 0
Objective value: 4898
CPU time: 9.24

